
Gurobi Optimizer version 5.6.3 build v5.6.3rc2 (linux64)
Copyright (c) 2013, Gurobi Optimization, Inc.

Read LP format model from file benchmark/translations/gc-1-Fulllns_3.lp
Reading time = 0.01 seconds
(null): 3930 rows, 894 columns, 8700 nonzeros
Optimize a model with 3930 rows, 894 columns and 8700 nonzeros
Found heuristic solution: objective 19
Presolve removed 3930 rows and 894 columns
Presolve time: 0.00s

Explored 0 nodes (0 simplex iterations) in 0.00 seconds
Thread count was 1 (of 2 available processors)

Optimal solution found (tolerance 1.00e-04)
Best objective 0.000000000000e+00, best bound 0.000000000000e+00, gap 0.0%

Unknown file type for file 'benchmark/translations/ol'

